p cnf 1265
-18 -396
-19 -399
-20 -402
-21 -405
-22 -408
-23 -411
-24 -414
-25 -417
-26 -420
-27 -423
-28 -426
-29 -429
-30 -432
-31 -435
-32 -438
-33 -441
-34 -444
-35 445
-36 446
-37 447
-38 448
-39 449
-40 450
-41 451
-42 452
-43 453
-44 454
-45 455
-46 -19
-46 -20
19 20 46
-47 -21
-47 -22
21 22 47
-48 -23
-48 -24
23 24 48
-49 -25
-49 -26
25 26 49
-50 -27
-50 -28
27 28 50
-51 -29
-51 -30
29 30 51
-52 -31
-52 -32
31 32 52
-53 -33
-53 -34
33 34 53
-54 -35
-54 -36
35 36 54
-55 -37
-55 -38
37 38 55
-56 -39
-56 -40
39 40 56
-57 -41
-57 -42
41 42 57
-58 -43
-58 -44
43 44 58
-59 46
-59 47
-46 -47 59
-60 48
-60 49
-48 -49 60
-61 50
-61 51
-50 -51 61
-62 52
-62 53
-52 -53 62
-63 54
-63 55
-54 -55 63
-64 56
-64 57
-56 -57 64
-65 -45
-65 58
45 -58 65
-66 59
-66 60
-59 -60 66
-67 61
-67 62
-61 -62 67
-68 63
-68 64
-63 -64 68
-69 66
-69 67
-66 -67 69
-70 65
-70 68
-65 -68 70
-71 69
-71 70
-69 -70 71
-72 -18
-72 19
18 -19 72
-73 18
-73 -19
-18 19 73
-74 -72
-74 -73
72 73 74
-75 18
-75 19
-18 -19 75
-76 -18
-76 -74
18 74 76
-77 18
-77 74
-18 -74 77
-78 -76
-78 -77
76 77 78
-79 18
-79 -74
-18 74 79
-80 -75
-80 -79
75 79 80
-81 -19
-81 20
19 -20 81
-82 19
-82 -20
-19 20 82
-83 -81
-83 -82
81 82 83
-84 19
-84 20
-19 -20 84
-85 80
-85 -83
-80 83 85
-86 -80
-86 83
80 -83 86
-87 -85
-87 -86
85 86 87
-88 -80
-88 -83
80 83 88
-89 -84
-89 -88
84 88 89
-90 -20
-90 21
20 -21 90
-91 20
-91 -21
-20 21 91
-92 -90
-92 -91
90 91 92
-93 20
-93 21
-20 -21 93
-94 89
-94 -92
-89 92 94
-95 -89
-95 92
89 -92 95
-96 -94
-96 -95
94 95 96
-97 -89
-97 -92
89 92 97
-98 -93
-98 -97
93 97 98
-99 -21
-99 22
21 -22 99
-100 21
-100 -22
-21 22 100
-101 -99
-101 -100
99 100 101
-102 21
-102 22
-21 -22 102
-103 98
-103 -101
-98 101 103
-104 -98
-104 101
98 -101 104
-105 -103
-105 -104
103 104 105
-106 -98
-106 -101
98 101 106
-107 -102
-107 -106
102 106 107
-108 -22
-108 23
22 -23 108
-109 22
-109 -23
-22 23 109
-110 -108
-110 -109
108 109 110
-111 22
-111 23
-22 -23 111
-112 107
-112 -110
-107 110 112
-113 -107
-113 110
107 -110 113
-114 -112
-114 -113
112 113 114
-115 -107
-115 -110
107 110 115
-116 -111
-116 -115
111 115 116
-117 -23
-117 24
23 -24 117
-118 23
-118 -24
-23 24 118
-119 -117
-119 -118
117 118 119
-120 23
-120 24
-23 -24 120
-121 116
-121 -119
-116 119 121
-122 -116
-122 119
116 -119 122
-123 -121
-123 -122
121 122 123
-124 -116
-124 -119
116 119 124
-125 -120
-125 -124
120 124 125
-126 -24
-126 25
24 -25 126
-127 24
-127 -25
-24 25 127
-128 -126
-128 -127
126 127 128
-129 24
-129 25
-24 -25 129
-130 125
-130 -128
-125 128 130
-131 -125
-131 128
125 -128 131
-132 -130
-132 -131
130 131 132
-133 -125
-133 -128
125 128 133
-134 -129
-134 -133
129 133 134
-135 -25
-135 26
25 -26 135
-136 25
-136 -26
-25 26 136
-137 -135
-137 -136
135 136 137
-138 25
-138 26
-25 -26 138
-139 134
-139 -137
-134 137 139
-140 -134
-140 137
134 -137 140
-141 -139
-141 -140
139 140 141
-142 -134
-142 -137
134 137 142
-143 -138
-143 -142
138 142 143
-144 -26
-144 27
26 -27 144
-145 26
-145 -27
-26 27 145
-146 -144
-146 -145
144 145 146
-147 26
-147 27
-26 -27 147
-148 143
-148 -146
-143 146 148
-149 -143
-149 146
143 -146 149
-150 -148
-150 -149
148 149 150
-151 -143
-151 -146
143 146 151
-152 -147
-152 -151
147 151 152
-153 -27
-153 28
27 -28 153
-154 27
-154 -28
-27 28 154
-155 -153
-155 -154
153 154 155
-156 27
-156 28
-27 -28 156
-157 152
-157 -155
-152 155 157
-158 -152
-158 155
152 -155 158
-159 -157
-159 -158
157 158 159
-160 -152
-160 -155
152 155 160
-161 -156
-161 -160
156 160 161
-162 -28
-162 29
28 -29 162
-163 28
-163 -29
-28 29 163
-164 -162
-164 -163
162 163 164
-165 28
-165 29
-28 -29 165
-166 161
-166 -164
-161 164 166
-167 -161
-167 164
161 -164 167
-168 -166
-168 -167
166 167 168
-169 -161
-169 -164
161 164 169
-170 -165
-170 -169
165 169 170
-171 -29
-171 30
29 -30 171
-172 29
-172 -30
-29 30 172
-173 -171
-173 -172
171 172 173
-174 29
-174 30
-29 -30 174
-175 170
-175 -173
-170 173 175
-176 -170
-176 173
170 -173 176
-177 -175
-177 -176
175 176 177
-178 -170
-178 -173
170 173 178
-179 -174
-179 -178
174 178 179
-180 -30
-180 31
30 -31 180
-181 30
-181 -31
-30 31 181
-182 -180
-182 -181
180 181 182
-183 30
-183 31
-30 -31 183
-184 179
-184 -182
-179 182 184
-185 -179
-185 182
179 -182 185
-186 -184
-186 -185
184 185 186
-187 -179
-187 -182
179 182 187
-188 -183
-188 -187
183 187 188
-189 -31
-189 32
31 -32 189
-190 31
-190 -32
-31 32 190
-191 -189
-191 -190
189 190 191
-192 31
-192 32
-31 -32 192
-193 188
-193 -191
-188 191 193
-194 -188
-194 191
188 -191 194
-195 -193
-195 -194
193 194 195
-196 -188
-196 -191
188 191 196
-197 -192
-197 -196
192 196 197
-198 -32
-198 33
32 -33 198
-199 32
-199 -33
-32 33 199
-200 -198
-200 -199
198 199 200
-201 32
-201 33
-32 -33 201
-202 197
-202 -200
-197 200 202
-203 -197
-203 200
197 -200 203
-204 -202
-204 -203
202 203 204
-205 -197
-205 -200
197 200 205
-206 -201
-206 -205
201 205 206
-207 -33
-207 34
33 -34 207
-208 33
-208 -34
-33 34 208
-209 -207
-209 -208
207 208 209
-210 33
-210 34
-33 -34 210
-211 206
-211 -209
-206 209 211
-212 -206
-212 209
206 -209 212
-213 -211
-213 -212
211 212 213
-214 -206
-214 -209
206 209 214
-215 -210
-215 -214
210 214 215
-216 -34
-216 35
34 -35 216
-217 34
-217 -35
-34 35 217
-218 -216
-218 -217
216 217 218
-219 34
-219 35
-34 -35 219
-220 215
-220 -218
-215 218 220
-221 -215
-221 218
215 -218 221
-222 -220
-222 -221
220 221 222
-223 -215
-223 -218
215 218 223
-224 -219
-224 -223
219 223 224
-225 -35
-225 36
35 -36 225
-226 35
-226 -36
-35 36 226
-227 -225
-227 -226
225 226 227
-228 35
-228 36
-35 -36 228
-229 224
-229 -227
-224 227 229
-230 -224
-230 227
224 -227 230
-231 -229
-231 -230
229 230 231
-232 -224
-232 -227
224 227 232
-233 -228
-233 -232
228 232 233
-234 -36
-234 37
36 -37 234
-235 36
-235 -37
-36 37 235
-236 -234
-236 -235
234 235 236
-237 36
-237 37
-36 -37 237
-238 233
-238 -236
-233 236 238
-239 -233
-239 236
233 -236 239
-240 -238
-240 -239
238 239 240
-241 -233
-241 -236
233 236 241
-242 -237
-242 -241
237 241 242
-243 -37
-243 38
37 -38 243
-244 37
-244 -38
-37 38 244
-245 -243
-245 -244
243 244 245
-246 37
-246 38
-37 -38 246
-247 242
-247 -245
-242 245 247
-248 -242
-248 245
242 -245 248
-249 -247
-249 -248
247 248 249
-250 -242
-250 -245
242 245 250
-251 -246
-251 -250
246 250 251
-252 -38
-252 39
38 -39 252
-253 38
-253 -39
-38 39 253
-254 -252
-254 -253
252 253 254
-255 38
-255 39
-38 -39 255
-256 251
-256 -254
-251 254 256
-257 -251
-257 254
251 -254 257
-258 -256
-258 -257
256 257 258
-259 -251
-259 -254
251 254 259
-260 -255
-260 -259
255 259 260
-261 -39
-261 40
39 -40 261
-262 39
-262 -40
-39 40 262
-263 -261
-263 -262
261 262 263
-264 39
-264 40
-39 -40 264
-265 260
-265 -263
-260 263 265
-266 -260
-266 263
260 -263 266
-267 -265
-267 -266
265 266 267
-268 -260
-268 -263
260 263 268
-269 -264
-269 -268
264 268 269
-270 -40
-270 41
40 -41 270
-271 40
-271 -41
-40 41 271
-272 -270
-272 -271
270 271 272
-273 40
-273 41
-40 -41 273
-274 269
-274 -272
-269 272 274
-275 -269
-275 272
269 -272 275
-276 -274
-276 -275
274 275 276
-277 -269
-277 -272
269 272 277
-278 -273
-278 -277
273 277 278
-279 -41
-279 42
41 -42 279
-280 41
-280 -42
-41 42 280
-281 -279
-281 -280
279 280 281
-282 41
-282 42
-41 -42 282
-283 278
-283 -281
-278 281 283
-284 -278
-284 281
278 -281 284
-285 -283
-285 -284
283 284 285
-286 -278
-286 -281
278 281 286
-287 -282
-287 -286
282 286 287
-288 -42
-288 43
42 -43 288
-289 42
-289 -43
-42 43 289
-290 -288
-290 -289
288 289 290
-291 42
-291 43
-42 -43 291
-292 287
-292 -290
-287 290 292
-293 -287
-293 290
287 -290 293
-294 -292
-294 -293
292 293 294
-295 -287
-295 -290
287 290 295
-296 -291
-296 -295
291 295 296
-297 -43
-297 44
43 -44 297
-298 43
-298 -44
-43 44 298
-299 -297
-299 -298
297 298 299
-300 43
-300 44
-43 -44 300
-301 296
-301 -299
-296 299 301
-302 -296
-302 299
296 -299 302
-303 -301
-303 -302
301 302 303
-304 -296
-304 -299
296 299 304
-305 -300
-305 -304
300 304 305
-306 -44
-306 45
44 -45 306
-307 44
-307 -45
-44 45 307
-308 -306
-308 -307
306 307 308
-309 44
-309 45
-44 -45 309
-310 305
-310 -308
-305 308 310
-311 -305
-311 308
305 -308 311
-312 -310
-312 -311
310 311 312
-313 -305
-313 -308
305 308 313
-314 -309
-314 -313
309 313 314
-315 18
-315 -78
-18 78 315
-316 -18
-316 20
18 -20 316
-317 -315
-317 -316
315 316 317
-318 18
-318 -87
-18 87 318
-319 -18
-319 21
18 -21 319
-320 -318
-320 -319
318 319 320
-321 18
-321 -96
-18 96 321
-322 -18
-322 22
18 -22 322
-323 -321
-323 -322
321 322 323
-324 18
-324 -105
-18 105 324
-325 -18
-325 23
18 -23 325
-326 -324
-326 -325
324 325 326
-327 18
-327 -114
-18 114 327
-328 -18
-328 24
18 -24 328
-329 -327
-329 -328
327 328 329
-330 18
-330 -123
-18 123 330
-331 -18
-331 25
18 -25 331
-332 -330
-332 -331
330 331 332
-333 18
-333 -132
-18 132 333
-334 -18
-334 26
18 -26 334
-335 -333
-335 -334
333 334 335
-336 18
-336 -141
-18 141 336
-337 -18
-337 27
18 -27 337
-338 -336
-338 -337
336 337 338
-339 18
-339 -150
-18 150 339
-340 -18
-340 28
18 -28 340
-341 -339
-341 -340
339 340 341
-342 18
-342 -159
-18 159 342
-343 -18
-343 29
18 -29 343
-344 -342
-344 -343
342 343 344
-345 18
-345 -168
-18 168 345
-346 -18
-346 30
18 -30 346
-347 -345
-347 -346
345 346 347
-348 18
-348 -177
-18 177 348
-349 -18
-349 31
18 -31 349
-350 -348
-350 -349
348 349 350
-351 18
-351 -186
-18 186 351
-352 -18
-352 32
18 -32 352
-353 -351
-353 -352
351 352 353
-354 18
-354 -195
-18 195 354
-355 -18
-355 33
18 -33 355
-356 -354
-356 -355
354 355 356
-357 18
-357 -204
-18 204 357
-358 -18
-358 34
18 -34 358
-359 -357
-359 -358
357 358 359
-360 18
-360 -213
-18 213 360
-361 -18
-361 35
18 -35 361
-362 -360
-362 -361
360 361 362
-363 18
-363 -222
-18 222 363
-364 -18
-364 36
18 -36 364
-365 -363
-365 -364
363 364 365
-366 18
-366 -231
-18 231 366
-367 -18
-367 37
18 -37 367
-368 -366
-368 -367
366 367 368
-369 18
-369 -240
-18 240 369
-370 -18
-370 38
18 -38 370
-371 -369
-371 -370
369 370 371
-372 18
-372 -249
-18 249 372
-373 -18
-373 39
18 -39 373
-374 -372
-374 -373
372 373 374
-375 18
-375 -258
-18 258 375
-376 -18
-376 40
18 -40 376
-377 -375
-377 -376
375 376 377
-378 18
-378 -267
-18 267 378
-379 -18
-379 41
18 -41 379
-380 -378
-380 -379
378 379 380
-381 18
-381 -276
-18 276 381
-382 -18
-382 42
18 -42 382
-383 -381
-383 -382
381 382 383
-384 18
-384 -285
-18 285 384
-385 -18
-385 43
18 -43 385
-386 -384
-386 -385
384 385 386
-387 18
-387 -294
-18 294 387
-388 -18
-388 44
18 -44 388
-389 -387
-389 -388
387 388 389
-390 18
-390 -303
-18 303 390
-391 -18
-391 45
18 -45 391
-392 -390
-392 -391
390 391 392
-393 18
-393 -312
-18 312 393
-394 1
-394 71
-1 -71 394
-395 -71
-395 72
71 -72 395
-396 -394
-396 -395
394 395 396
-397 2
-397 71
-2 -71 397
-398 -71
-398 -317
71 317 398
-399 -397
-399 -398
397 398 399
-400 3
-400 71
-3 -71 400
-401 -71
-401 -320
71 320 401
-402 -400
-402 -401
400 401 402
-403 4
-403 71
-4 -71 403
-404 -71
-404 -323
71 323 404
-405 -403
-405 -404
403 404 405
-406 5
-406 71
-5 -71 406
-407 -71
-407 -326
71 326 407
-408 -406
-408 -407
406 407 408
-409 6
-409 71
-6 -71 409
-410 -71
-410 -329
71 329 410
-411 -409
-411 -410
409 410 411
-412 7
-412 71
-7 -71 412
-413 -71
-413 -332
71 332 413
-414 -412
-414 -413
412 413 414
-415 8
-415 71
-8 -71 415
-416 -71
-416 -335
71 335 416
-417 -415
-417 -416
415 416 417
-418 9
-418 71
-9 -71 418
-419 -71
-419 -338
71 338 419
-420 -418
-420 -419
418 419 420
-421 10
-421 71
-10 -71 421
-422 -71
-422 -341
71 341 422
-423 -421
-423 -422
421 422 423
-424 11
-424 71
-11 -71 424
-425 -71
-425 -344
71 344 425
-426 -424
-426 -425
424 425 426
-427 12
-427 71
-12 -71 427
-428 -71
-428 -347
71 347 428
-429 -427
-429 -428
427 428 429
-430 13
-430 71
-13 -71 430
-431 -71
-431 -350
71 350 431
-432 -430
-432 -431
430 431 432
-433 14
-433 71
-14 -71 433
-434 -71
-434 -353
71 353 434
-435 -433
-435 -434
433 434 435
-436 15
-436 71
-15 -71 436
-437 -71
-437 -356
71 356 437
-438 -436
-438 -437
436 437 438
-439 16
-439 71
-16 -71 439
-440 -71
-440 -359
71 359 440
-441 -439
-441 -440
439 440 441
-442 17
-442 71
-17 -71 442
-443 -71
-443 -362
71 362 443
-444 -442
-444 -443
442 443 444
-445 -71
-445 -365
71 365 445
-446 -71
-446 -368
71 368 446
-447 -71
-447 -371
71 371 447
-448 -71
-448 -374
71 374 448
-449 -71
-449 -377
71 377 449
-450 -71
-450 -380
71 380 450
-451 -71
-451 -383
71 383 451
-452 -71
-452 -386
71 386 452
-453 -71
-453 -389
71 389 453
-454 -71
-454 -392
71 392 454
-455 -71
-455 393
71 -393 455
-456 -45
-456 314
45 -314 456
-457 18
-457 -456
-18 456 457
457
